
Value of objective function: 1734.14

Actual values of the variables:
COLx1                3
COLx2                0
COLx3                1.91727
COLx4                1.54664
COLx5                0
COLx6                1
COLx7                3
COLx8                1
COLx9                1
COLx10               1
COLx11               3
COLx12               3
COLx13               0
COLx14               0
COLx15               0
COLx16               1
COLx17               1.5309
COLx18               0
COLx19               9.51189
COLx20               2.09215
COLx21               2.09216
COLx22               9.51189
COLx23               4.30171
COLx24               9.01629
COLx25               4.28873
COLx26               9.51189
COLx27               3.49391
COLx28               5.59617
COLx29               3.22699
COLx30               6.01799
COLx31               3.64881
COLx32               4.65781
COLx33               4.65781
COLx34               9.01629
COLx35               4.28873
COLx36               2.47334
COLx37               2.47334
COLx38               9.51189
COLx39               3.91573
COLx40               5.21019
COLx41               2.73685
COLx42               2.36918
COLx43               2.36918
COLx44               9.51189
COLx45               4.78434
COLx46               8.64629
COLx47               3.91873
COLx48               6.01799
COLx49               3.87745
COLx50               2.14054
COLx51               2.14054
COLx52               4.72756
COLx53               2.35838
COLx54               2.36918
COLx55               2.36918

Actual values of the constraints:
ROWx1                0
ROWx2                3.11803
ROWx3                2.6354
ROWx4                3.92583
ROWx5                0.277022
ROWx6                0.277022
ROWx7                8.04521
ROWx8                4.25552
ROWx9                3.07849
ROWx10               0
ROWx11               0.552383
ROWx12               0.069751
ROWx13               1.36018
ROWx14               3.75259
ROWx15               4.07588
ROWx16               4.22675
ROWx17               0
ROWx18               3.12282
ROWx19               2.25421
ROWx20               3.54464
ROWx21               0
ROWx22               5.43716
ROWx23               3.47534
ROWx24               2.881
ROWx25               0
ROWx26               2.35838
ROWx27               2.35838
ROWx28               0.104167
ROWx29               0
ROWx30               4.52522
ROWx31               3.09922
ROWx32               2.66699
ROWx33               0
ROWx34               3.19853
ROWx35               3.441
ROWx36               3.55415
ROWx37               0
ROWx38               0
ROWx39               2.95243
ROWx40               2.48849
ROWx41               2.33385
ROWx42               0
ROWx43               5.40556
ROWx44               4.25622
ROWx45               3.90544
ROWx46               0
ROWx47               3.32243
ROWx48               2.93932
ROWx49               2.82239
ROWx50               0
ROWx51               3.69243
ROWx52               3.35223
ROWx53               3.25532
ROWx54               0
ROWx55               0
ROWx56               0
ROWx57               0
ROWx58               4.33767
ROWx59               3.20665
ROWx60               2.82964
ROWx61               0
ROWx62               2.35838
ROWx63               2.35838
ROWx64               0
ROWx65               0
ROWx66               0.104167
ROWx67               0
ROWx68               10.6005
ROWx69               5.6059
ROWx70               4.00571
ROWx71               0
ROWx72               5.67498
ROWx73               4.42865
ROWx74               4.01321
ROWx75               0.495608
ROWx76               4.28873
ROWx77               4.28873
ROWx78               4.28873
ROWx79               0.865608
ROWx80               3.91873
ROWx81               3.91873
ROWx82               3.91873
ROWx83               0.495608
ROWx84               4.28873
ROWx85               4.28873
ROWx86               4.28873
ROWx87               0
ROWx88               5.02873
ROWx89               4.61329
ROWx90               4.47481
ROWx91               0
ROWx92               5.02873
ROWx93               4.39273
ROWx94               4.18073
ROWx95               0
ROWx96               4.78434
ROWx97               4.78434
ROWx98               4.78434
